Using license file /home/benedond/gurobi.lic
Using gurobi.env file
Set parameter Threads to value 1
Academic license - for non-commercial use only
Changed value of parameter TimeLimit to 300.0
   Prev: inf  Min: 0.0  Max: inf  Default: inf
Gurobi Optimizer version 9.0.1 build v9.0.1rc0 (linux64)
Optimize a model with 7832 rows, 7531 columns and 36997 nonzeros
Model fingerprint: 0x279921ce
Variable types: 120 continuous, 7411 integer (7411 binary)
Coefficient statistics:
  Matrix range     [2e-01, 5e+02]
  Objective range  [4e-03, 2e-01]
  Bounds range     [1e+00, 1e+00]
  RHS range        [1e+00, 3e+03]
Presolve removed 145 rows and 128 columns
Presolve time: 0.13s
Presolved: 7687 rows, 7403 columns, 36480 nonzeros
Variable types: 119 continuous, 7284 integer (7284 binary)

Root relaxation: objective 1.940318e+00, 6903 iterations, 0.45 seconds

    Nodes    |    Current Node    |     Objective Bounds      |     Work
 Expl Unexpl |  Obj  Depth IntInf | Incumbent    BestBd   Gap | It/Node Time

     0     0    1.94032    0  351          -    1.94032      -     -    0s
     0     0    2.03898    0  296          -    2.03898      -     -    1s
     0     0    2.04500    0  311          -    2.04500      -     -    1s
     0     0    2.12326    0  344          -    2.12326      -     -    2s
     0     0    2.12619    0  344          -    2.12619      -     -    2s
     0     0    2.22536    0  310          -    2.22536      -     -    3s
H    0     0                       3.4767546    2.22536  36.0%     -    5s
H    0     0                       3.3267253    2.22536  33.1%     -    9s
     0     0    2.24998    0  287    3.32673    2.24998  32.4%     -    9s
     0     0    2.25647    0  285    3.32673    2.25647  32.2%     -    9s
     0     0    2.25726    0  270    3.32673    2.25726  32.1%     -    9s
     0     0    2.25750    0  289    3.32673    2.25750  32.1%     -    9s
     0     0    2.25754    0  287    3.32673    2.25754  32.1%     -    9s
     0     0    2.29359    0  340    3.32673    2.29359  31.1%     -   10s
     0     0    2.31129    0  352    3.32673    2.31129  30.5%     -   10s
     0     0    2.31782    0  323    3.32673    2.31782  30.3%     -   10s
     0     0    2.31868    0  301    3.32673    2.31868  30.3%     -   10s
     0     0    2.31876    0  324    3.32673    2.31876  30.3%     -   10s
     0     0    2.33469    0  313    3.32673    2.33469  29.8%     -   11s
     0     0    2.33794    0  338    3.32673    2.33794  29.7%     -   14s
     0     0    2.33840    0  341    3.32673    2.33840  29.7%     -   14s
     0     0    2.33853    0  321    3.32673    2.33853  29.7%     -   14s
     0     0    2.34758    0  326    3.32673    2.34758  29.4%     -   14s
     0     0    2.35002    0  350    3.32673    2.35002  29.4%     -   17s
     0     0    2.35084    0  359    3.32673    2.35084  29.3%     -   17s
     0     0    2.35143    0  343    3.32673    2.35143  29.3%     -   17s
     0     0    2.35154    0  343    3.32673    2.35154  29.3%     -   17s
     0     0    2.36035    0  372    3.32673    2.36035  29.0%     -   17s
     0     0    2.36151    0  382    3.32673    2.36151  29.0%     -   17s
     0     0    2.36177    0  378    3.32673    2.36177  29.0%     -   17s
     0     0    2.36190    0  375    3.32673    2.36190  29.0%     -   17s
     0     0    2.36919    0  377    3.32673    2.36919  28.8%     -   18s
     0     0    2.37342    0  353    3.32673    2.37342  28.7%     -   18s
     0     0    2.37436    0  346    3.32673    2.37436  28.6%     -   18s
     0     0    2.37454    0  372    3.32673    2.37454  28.6%     -   18s
     0     0    2.37810    0  348    3.32673    2.37810  28.5%     -   18s
     0     0    2.37898    0  357    3.32673    2.37898  28.5%     -   19s
     0     0    2.37953    0  332    3.32673    2.37953  28.5%     -   19s
     0     0    2.37971    0  360    3.32673    2.37971  28.5%     -   19s
     0     0    2.38460    0  375    3.32673    2.38460  28.3%     -   19s
     0     0    2.38705    0  330    3.32673    2.38705  28.2%     -   19s
     0     0    2.38788    0  363    3.32673    2.38788  28.2%     -   19s
     0     0    2.38810    0  370    3.32673    2.38810  28.2%     -   20s
     0     0    2.39186    0  398    3.32673    2.39186  28.1%     -   20s
     0     0    2.39422    0  365    3.32673    2.39422  28.0%     -   20s
     0     0    2.39464    0  395    3.32673    2.39464  28.0%     -   20s
     0     0    2.39490    0  397    3.32673    2.39490  28.0%     -   20s
     0     0    2.39767    0  342    3.32673    2.39767  27.9%     -   20s
     0     0    2.39839    0  348    3.32673    2.39839  27.9%     -   20s
     0     0    2.39876    0  349    3.32673    2.39876  27.9%     -   21s
     0     0    2.39885    0  361    3.32673    2.39885  27.9%     -   21s
     0     0    2.40093    0  404    3.32673    2.40093  27.8%     -   21s
     0     0    2.40154    0  420    3.32673    2.40154  27.8%     -   21s
     0     0    2.40195    0  407    3.32673    2.40195  27.8%     -   21s
     0     0    2.40202    0  405    3.32673    2.40202  27.8%     -   21s
     0     0    2.40539    0  384    3.32673    2.40539  27.7%     -   21s
     0     0    2.40588    0  374    3.32673    2.40588  27.7%     -   21s
     0     0    2.40605    0  409    3.32673    2.40605  27.7%     -   21s
     0     0    2.40783    0  398    3.32673    2.40783  27.6%     -   22s
     0     0    2.40783    0  398    3.32673    2.40783  27.6%     -   26s
     0     2    2.40793    0  391    3.32673    2.40793  27.6%     -   27s
     7     9    2.50845    5  338    3.32673    2.41017  27.6%   574   30s
H   27    27                       3.2623004    2.41017  26.1%   485   44s
    27    29    2.42780   22  337    3.26230    2.41017  26.1%   502   45s
    51    53    2.53679   39  314    3.26230    2.41017  26.1%   600   50s
    78    80    2.49007   62  329    3.26230    2.41017  26.1%   580   55s
   103   105    2.70421   79  270    3.26230    2.41017  26.1%   666   60s
   138   140    2.66046  109  283    3.26230    2.41017  26.1%   618   71s
   169   171    2.62297  133  240    3.26230    2.41017  26.1%   607   75s
   219   221    2.77772  172  242    3.26230    2.41017  26.1%   594   80s
   269   271    2.86671  209  195    3.26230    2.41017  26.1%   578   85s
   336   338    3.00641  262  140    3.26230    2.41017  26.1%   582   90s
   403   390    2.62387   10  368    3.26230    2.41274  26.0%   585   95s
H  427   396                       3.2006191    2.41274  24.6%   584  106s
   448   419    2.55772   49  301    3.20062    2.41274  24.6%   598  110s
   493   464    2.75717   84  199    3.20062    2.41274  24.6%   604  115s
H  510   480                       3.1917912    2.41274  24.4%   603  123s
   511   481    2.85236  175  398    3.19179    2.41274  24.4%   602  126s
H  512   457                       3.1888682    2.41274  24.3%   601  128s
   514   458    2.78157  180  270    3.18887    2.41274  24.3%   599  130s
   521   463    2.75343  161  396    3.18887    2.41774  24.2%   591  135s
   529   468    2.81368   95  397    3.18887    2.44202  23.4%   582  140s
   538   474    2.52319   33  478    3.18887    2.45451  23.0%   572  145s
H  543   453                       3.1675385    2.46265  22.3%   567  166s
   549   457    2.95446  247  456    3.16754    2.46908  22.1%   560  170s
   556   462    2.58822   68  480    3.16754    2.47534  21.9%   553  175s
   562   466    3.09274  272  501    3.16754    2.47859  21.8%   547  180s
   570   471    2.75654  162  457    3.16754    2.48334  21.6%   540  185s
   577   476    2.55854   87  497    3.16754    2.48601  21.5%   533  190s
   585   481    2.53751   40  480    3.16754    2.48742  21.5%   526  195s
   593   487    2.56124   97  546    3.16754    2.48948  21.4%   519  200s
   601   492    3.15501  264  434    3.16754    2.49080  21.4%   512  205s
   611   500    2.85236  175  358    3.16754    2.49130  21.3%   669  210s
   614   502    2.78157  180  403    3.16754    2.49130  21.3%   665  215s
   620   506    2.87545  208  408    3.16754    2.49130  21.3%   659  220s
   628   512    2.58452   65  431    3.16754    2.49187  21.3%   650  225s
H  633   488                       3.1402198    2.49283  20.6%   645  242s
   639   492    2.73022  152  449    3.14022    2.49342  20.6%   639  245s
   645   496    2.64529  143  423    3.14022    2.49404  20.6%   633  250s
   654   502    2.66046  110  570    3.14022    2.49575  20.5%   625  255s
   663   508    2.95856  232  520    3.14022    2.49749  20.5%   616  260s
   670   513    2.75654  162  526    3.14022    2.49967  20.4%   610  265s
   678   518    3.14022  282  510    3.14022    2.50064  20.4%   602  287s
   680   519    2.96921  251  510    3.14022    2.50074  20.4%   601  298s
   681   522    2.50086   21  506    3.14022    2.50086  20.4%   705  300s

Cutting planes:
  Gomory: 19
  Cover: 14
  Implied bound: 8
  Projected implied bound: 1
  Clique: 11
  MIR: 242
  StrongCG: 8
  Flow cover: 550
  GUB cover: 2
  RLT: 13
  Relax-and-lift: 318

Explored 682 nodes (522936 simplex iterations) in 300.30 seconds
Thread count was 1 (of 4 available processors)

Solution count 8: 3.14022 3.16754 3.18887 ... 3.47675

Time limit reached
Best objective 3.140219798612e+00, best bound 2.500861638230e+00, gap 20.3603%
